Translating instance to solver...

Set parameter TimeLimit to value 28800
Gurobi Optimizer version 11.0.2 build v11.0.2rc0 (linux64 - "Ubuntu 22.04.4 LTS")

CPU model: Intel(R) Xeon(R) Gold 5120 CPU @ 2.20GHz, instruction set [SSE2|AVX|AVX2|AVX512]
Thread count: 28 physical cores, 56 logical processors, using up to 28 threads

Academic license 2463511 - for non-commercial use only - registered to lu___@cefet-rj.br
Optimize a model with 61055 rows, 30653 columns and 140553 nonzeros
Model fingerprint: 0x71d88c7e
Variable types: 1 continuous, 30652 integer (30600 binary)
Coefficient statistics:
  Matrix range     [1e+00, 1e+05]
  Objective range  [3e-01, 8e-01]
  Bounds range     [1e+00, 5e+01]
  RHS range        [1e+00, 5e+01]
Presolve removed 50892 rows and 26438 columns
Presolve time: 0.84s
Presolved: 10163 rows, 4215 columns, 30673 nonzeros
Variable types: 0 continuous, 4215 integer (4164 binary)

Root relaxation: objective 9.176730e-01, 730 iterations, 0.04 seconds (0.04 work units)

    Nodes    |    Current Node    |     Objective Bounds      |     Work
 Expl Unexpl |  Obj  Depth IntInf | Incumbent    BestBd   Gap | It/Node Time

     0     0    0.91767    0   18          -    0.91767      -     -    1s
     0     0    0.91767    0   52          -    0.91767      -     -    1s
     0     0    0.91767    0   52          -    0.91767      -     -    1s
     0     0    0.91767    0   23          -    0.91767      -     -    1s
     0     0    0.91767    0   15          -    0.91767      -     -    1s
     0     0    0.91767    0   20          -    0.91767      -     -    2s
     0     0    0.91767    0   18          -    0.91767      -     -    2s
H    0     0                       6.9824740    0.91767  86.9%     -    2s
     0     0    0.91767    0   21    6.98247    0.91767  86.9%     -    2s
H    0     0                       6.0648010    0.91767  84.9%     -    2s
H    0     0                       1.8176730    0.91767  49.5%     -    2s
     0     0    0.91767    0   18    1.81767    0.91767  49.5%     -    2s
H    0     0                       1.3676730    0.91767  32.9%     -    2s
     0     0    0.91767    0   16    1.36767    0.91767  32.9%     -    2s
     0     0    0.91767    0   61    1.36767    0.91767  32.9%     -    2s
     0     0    0.91767    0   22    1.36767    0.91767  32.9%     -    3s
     0     0    0.91767    0   46    1.36767    0.91767  32.9%     -    3s
     0     0    0.91767    0   57    1.36767    0.91767  32.9%     -    3s
     0     0    0.91767    0   15    1.36767    0.91767  32.9%     -    3s
     0     0    0.91767    0   74    1.36767    0.91767  32.9%     -    3s
H    0     0                       1.2235640    0.91767  25.0%     -    3s
     0     0    0.91767    0   15    1.22356    0.91767  25.0%     -    3s
     0     0    0.91767    0   43    1.22356    0.91767  25.0%     -    3s
     0     0    0.91767    0   25    1.22356    0.91767  25.0%     -    3s
     0     0    0.91767    0   25    1.22356    0.91767  25.0%     -    3s
     0     2    0.91767    0   25    1.22356    0.91767  25.0%     -    3s
    26    20    0.91767   15   23    1.22356    0.91767  25.0%   431    5s

Cutting planes:
  Learned: 26
  Gomory: 5
  Implied bound: 5
  Clique: 1
  MIR: 3
  Flow cover: 7
  Zero half: 4
  RLT: 10
  Relax-and-lift: 2

Explored 125 nodes (40166 simplex iterations) in 6.27 seconds (4.04 work units)
Thread count was 28 (of 56 available processors)

Solution count 5: 1.22356 1.36767 1.81767 ... 6.98247

Optimal solution found (tolerance 1.00e-04)
Best objective 1.223564000000e+00, best bound 1.223564000000e+00, gap 0.0000%

Solver Wallclock Time (for this epsilon): 6.270843982696533 s
Python wallclock Time (for this epsilon): 10.584348917007446 s


Total Elapsed Time (since program call): 173.14535546302795 s

Results:

I = 1.223564 mA
C = 21.0 points
C ~= 8.4 km^2

Minimum Epsilon for this instance = 10
Maximum Epsilon for this instance = 100

Current Epsilon = 20


Preprocessing Time (for this epsilon): 0.008472204208374023 s


Updated solution vectors:
sol_I = [-0.9176730000000001,-1.223564]
sol_C = [12.0,21.0]
sol_eps = [10,20]
sol_gap = [0.0,0.0]
